N = 198;
M = 450;
Edge_Start = [1, 1, 2, 3, 3, 4, 5, 6, 7, 8, 9, 9, 10, 11, 11, 13, 14, 15, 16, 17, 18, 19, 20, 21, 22, 23, 23, 24, 25, 25, 26, 27, 27, 28, 29, 29, 30, 31, 31, 32, 33, 34, 35, 35, 37, 37, 38, 39, 40, 40, 41, 42, 42, 43, 44, 45, 46, 46, 48, 48, 49, 50, 51, 52, 54, 54, 55, 56, 56, 57, 58, 58, 60, 61, 61, 62, 63, 63, 65, 66, 67, 67, 68, 69, 70, 71, 72, 73, 75, 76, 77, 77, 78, 79, 80, 80, 81, 82, 83, 84, 85, 86, 88, 88, 89, 90, 90, 92, 92, 93, 94, 95, 96, 97, 98, 98, 100, 101, 103, 103, 105, 106, 107, 107, 108, 109, 109, 110, 111, 111, 112, 113, 113, 114, 115, 115, 116, 117, 118, 120, 120, 121, 122, 122, 123, 124, 125, 126, 127, 128, 129, 130, 130, 131, 132, 132, 133, 134, 135, 136, 136, 137, 138, 138, 140, 143, 143, 144, 145, 145, 147, 148, 149, 150, 151, 151, 153, 154, 155, 155, 156, 157, 157, 158, 159, 160, 160, 161, 162, 162, 163, 164, 164, 165, 166, 166, 167, 168, 168, 169, 170, 170, 171, 172, 173, 174, 174, 176, 176, 178, 178, 181, 182, 183, 184, 186, 187, 189, 190, 191, 193, 194, 195, 196, 197, 2, 20, 3, 4, 22, 5, 24, 7, 8, 9, 10, 28, 11, 12, 30, 32, 15, 16, 17, 36, 19, 38, 21, 41, 23, 24, 43, 25, 26, 45, 27, 28, 47, 29, 30, 49, 31, 32, 51, 33, 53, 35, 36, 55, 38, 57, 39, 59, 41, 60, 42, 43, 62, 44, 45, 46, 47, 66, 49, 68, 50, 51, 52, 72, 55, 74, 56, 57, 76, 58, 59, 78, 61, 62, 81, 63, 64, 83, 85, 67, 68, 87, 69, 70, 71, 72, 73, 74, 95, 77, 78, 97, 79, 99, 81, 100, 82, 83, 84, 85, 86, 87, 89, 108, 90, 91, 110, 93, 112, 94, 114, 96, 116, 98, 99, 118, 101, 102, 104, 123, 106, 107, 108, 127, 109, 110, 129, 111, 112, 131, 113, 114, 133, 115, 116, 135, 117, 118, 119, 121, 140, 122, 123, 142, 124, 144, 126, 127, 128, 148, 130, 131, 150, 132, 133, 152, 134, 135, 136, 137, 156, 138, 139, 158, 141, 144, 163, 145, 146, 165, 167, 149, 150, 151, 152, 171, 154, 155, 156, 175, 157, 158, 177, 159, 179, 161, 180, 162, 163, 182, 164, 165, 184, 166, 167, 186, 168, 169, 188, 170, 171, 190, 172, 192, 174, 175, 194, 177, 196, 179, 198, 182, 183, 184, 185, 187, 188, 190, 191, 192, 194, 195, 196, 197, 198];
Edge_End = [2, 20, 3, 4, 22, 5, 24, 7, 8, 9, 10, 28, 11, 12, 30, 32, 15, 16, 17, 36, 19, 38, 21, 41, 23, 24, 43, 25, 26, 45, 27, 28, 47, 29, 30, 49, 31, 32, 51, 33, 53, 35, 36, 55, 38, 57, 39, 59, 41, 60, 42, 43, 62, 44, 45, 46, 47, 66, 49, 68, 50, 51, 52, 72, 55, 74, 56, 57, 76, 58, 59, 78, 61, 62, 81, 63, 64, 83, 85, 67, 68, 87, 69, 70, 71, 72, 73, 74, 95, 77, 78, 97, 79, 99, 81, 100, 82, 83, 84, 85, 86, 87, 89, 108, 90, 91, 110, 93, 112, 94, 114, 96, 116, 98, 99, 118, 101, 102, 104, 123, 106, 107, 108, 127, 109, 110, 129, 111, 112, 131, 113, 114, 133, 115, 116, 135, 117, 118, 119, 121, 140, 122, 123, 142, 124, 144, 126, 127, 128, 148, 130, 131, 150, 132, 133, 152, 134, 135, 136, 137, 156, 138, 139, 158, 141, 144, 163, 145, 146, 165, 167, 149, 150, 151, 152, 171, 154, 155, 156, 175, 157, 158, 177, 159, 179, 161, 180, 162, 163, 182, 164, 165, 184, 166, 167, 186, 168, 169, 188, 170, 171, 190, 172, 192, 174, 175, 194, 177, 196, 179, 198, 182, 183, 184, 185, 187, 188, 190, 191, 192, 194, 195, 196, 197, 198, 1, 1, 2, 3, 3, 4, 5, 6, 7, 8, 9, 9, 10, 11, 11, 13, 14, 15, 16, 17, 18, 19, 20, 21, 22, 23, 23, 24, 25, 25, 26, 27, 27, 28, 29, 29, 30, 31, 31, 32, 33, 34, 35, 35, 37, 37, 38, 39, 40, 40, 41, 42, 42, 43, 44, 45, 46, 46, 48, 48, 49, 50, 51, 52, 54, 54, 55, 56, 56, 57, 58, 58, 60, 61, 61, 62, 63, 63, 65, 66, 67, 67, 68, 69, 70, 71, 72, 73, 75, 76, 77, 77, 78, 79, 80, 80, 81, 82, 83, 84, 85, 86, 88, 88, 89, 90, 90, 92, 92, 93, 94, 95, 96, 97, 98, 98, 100, 101, 103, 103, 105, 106, 107, 107, 108, 109, 109, 110, 111, 111, 112, 113, 113, 114, 115, 115, 116, 117, 118, 120, 120, 121, 122, 122, 123, 124, 125, 126, 127, 128, 129, 130, 130, 131, 132, 132, 133, 134, 135, 136, 136, 137, 138, 138, 140, 143, 143, 144, 145, 145, 147, 148, 149, 150, 151, 151, 153, 154, 155, 155, 156, 157, 157, 158, 159, 160, 160, 161, 162, 162, 163, 164, 164, 165, 166, 166, 167, 168, 168, 169, 170, 170, 171, 172, 173, 174, 174, 176, 176, 178, 178, 181, 182, 183, 184, 186, 187, 189, 190, 191, 193, 194, 195, 196, 197];
L = [1, 14, 6, 11, 8, 14, 4, 16, 9, 18, 1, 4, 8, 9, 13, 2, 2, 15, 9, 14, 14, 13, 9, 16, 7, 18, 5, 13, 10, 17, 7, 15, 11, 11, 11, 14, 3, 19, 18, 8, 6, 12, 3, 19, 18, 3, 7, 10, 1, 16, 1, 18, 1, 1, 4, 4, 9, 6, 9, 16, 7, 1, 13, 11, 17, 18, 2, 1, 13, 9, 4, 19, 1, 2, 19, 5, 9, 2, 8, 14, 17, 2, 11, 5, 14, 16, 4, 10, 12, 3, 4, 19, 15, 16, 5, 6, 6, 10, 6, 18, 1, 5, 14, 3, 5, 14, 5, 9, 3, 13, 6, 14, 18, 3, 10, 4, 17, 11, 9, 2, 3, 14, 9, 5, 1, 8, 7, 6, 5, 15, 1, 12, 10, 16, 8, 14, 15, 15, 8, 5, 9, 17, 3, 2, 12, 6, 13, 8, 5, 5, 2, 10, 12, 16, 18, 10, 1, 15, 16, 7, 9, 12, 9, 18, 3, 6, 3, 12, 10, 2, 16, 7, 17, 1, 2, 17, 6, 4, 12, 2, 13, 12, 15, 10, 13, 14, 6, 8, 14, 4, 11, 17, 18, 14, 3, 16, 11, 4, 11, 7, 18, 10, 2, 1, 3, 1, 6, 1, 1, 19, 12, 13, 8, 9, 2, 10, 17, 10, 9, 9, 6, 18, 6, 19, 7, 1, 14, 6, 11, 8, 14, 4, 16, 9, 18, 1, 4, 8, 9, 13, 2, 2, 15, 9, 14, 14, 13, 9, 16, 7, 18, 5, 13, 10, 17, 7, 15, 11, 11, 11, 14, 3, 19, 18, 8, 6, 12, 3, 19, 18, 3, 7, 10, 1, 16, 1, 18, 1, 1, 4, 4, 9, 6, 9, 16, 7, 1, 13, 11, 17, 18, 2, 1, 13, 9, 4, 19, 1, 2, 19, 5, 9, 2, 8, 14, 17, 2, 11, 5, 14, 16, 4, 10, 12, 3, 4, 19, 15, 16, 5, 6, 6, 10, 6, 18, 1, 5, 14, 3, 5, 14, 5, 9, 3, 13, 6, 14, 18, 3, 10, 4, 17, 11, 9, 2, 3, 14, 9, 5, 1, 8, 7, 6, 5, 15, 1, 12, 10, 16, 8, 14, 15, 15, 8, 5, 9, 17, 3, 2, 12, 6, 13, 8, 5, 5, 2, 10, 12, 16, 18, 10, 1, 15, 16, 7, 9, 12, 9, 18, 3, 6, 3, 12, 10, 2, 16, 7, 17, 1, 2, 17, 6, 4, 12, 2, 13, 12, 15, 10, 13, 14, 6, 8, 14, 4, 11, 17, 18, 14, 3, 16, 11, 4, 11, 7, 18, 10, 2, 1, 3, 1, 6, 1, 1, 19, 12, 13, 8, 9, 2, 10, 17, 10, 9, 9, 6, 18, 6, 19, 7];
T = [1, 12, 7, 7, 1, 17, 8, 24, 15, 20, 1, 1, 6, 9, 3, 1, 1, 18, 11, 20, 8, 18, 11, 13, 5, 20, 6, 8, 8, 16, 4, 21, 23, 9, 2, 7, 1, 9, 28, 11, 2, 3, 7, 13, 12, 2, 15, 18, 1, 19, 1, 20, 3, 1, 3, 4, 11, 3, 1, 17, 1, 1, 4, 12, 14, 24, 9, 1, 7, 6, 1, 24, 1, 1, 17, 4, 9, 1, 13, 15, 9, 1, 3, 2, 15, 16, 8, 6, 10, 1, 22, 28, 11, 16, 7, 2, 3, 10, 10, 20, 6, 8, 9, 4, 5, 18, 6, 14, 5, 10, 5, 17, 20, 1, 18, 1, 17, 8, 16, 4, 4, 15, 12, 1, 1, 9, 7, 4, 3, 16, 1, 13, 10, 15, 1, 12, 16, 16, 9, 4, 1, 5, 1, 1, 15, 9, 22, 10, 3, 13, 4, 6, 5, 11, 10, 10, 1, 19, 15, 8, 6, 10, 11, 12, 4, 3, 2, 7, 16, 2, 19, 7, 21, 1, 1, 20, 3, 6, 5, 5, 15, 18, 16, 9, 18, 13, 1, 9, 15, 2, 22, 15, 9, 19, 10, 15, 11, 9, 12, 5, 17, 17, 1, 1, 10, 4, 1, 1, 1, 27, 13, 19, 7, 4, 1, 6, 19, 15, 1, 5, 9, 13, 14, 16, 8, 1, 12, 7, 7, 1, 17, 8, 24, 15, 20, 1, 1, 6, 9, 3, 1, 1, 18, 11, 20, 8, 18, 11, 13, 5, 20, 6, 8, 8, 16, 4, 21, 23, 9, 2, 7, 1, 9, 28, 11, 2, 3, 7, 13, 12, 2, 15, 18, 1, 19, 1, 20, 3, 1, 3, 4, 11, 3, 1, 17, 1, 1, 4, 12, 14, 24, 9, 1, 7, 6, 1, 24, 1, 1, 17, 4, 9, 1, 13, 15, 9, 1, 3, 2, 15, 16, 8, 6, 10, 1, 22, 28, 11, 16, 7, 2, 3, 10, 10, 20, 6, 8, 9, 4, 5, 18, 6, 14, 5, 10, 5, 17, 20, 1, 18, 1, 17, 8, 16, 4, 4, 15, 12, 1, 1, 9, 7, 4, 3, 16, 1, 13, 10, 15, 1, 12, 16, 16, 9, 4, 1, 5, 1, 1, 15, 9, 22, 10, 3, 13, 4, 6, 5, 11, 10, 10, 1, 19, 15, 8, 6, 10, 11, 12, 4, 3, 2, 7, 16, 2, 19, 7, 21, 1, 1, 20, 3, 6, 5, 5, 15, 18, 16, 9, 18, 13, 1, 9, 15, 2, 22, 15, 9, 19, 10, 15, 11, 9, 12, 5, 17, 17, 1, 1, 10, 4, 1, 1, 1, 27, 13, 19, 7, 4, 1, 6, 19, 15, 1, 5, 9, 13, 14, 16, 8];
Lower_Bound = [0, 1, 8, 15, 32, 133, 109, 94, 74, 75, 81, 90, 93, 213, 212, 194, 183, 193, 185, 12, 23, 9, 14, 34, 40, 48, 52, 73, 80, 82, 83, 92, 103, 159, 156, 163, 155, 167, 178, 37, 36, 37, 20, 21, 24, 28, 39, 72, 73, 74, 75, 79, 105, 129, 143, 152, 153, 159, 160, 42, 41, 40, 44, 53, 74, 31, 46, 55, 58, 60, 75, 91, 99, 105, 269, 159, 160, 182, 193, 65, 58, 55, 45, 55, 61, 55, 47, 273, 270, 265, 283, 257, 253, 243, 259, 242, 188, 189, 207, 67, 84, 92, 404, 420, 300, 296, 281, 269, 268, 259, 255, 252, 251, 238, 223, 222, 206, 190, 199, 410, 406, 401, 400, 385, 314, 292, 282, 285, 275, 277, 271, 265, 255, 254, 235, 250, 258, 268, 279, 411, 415, 402, 379, 376, 369, 385, 357, 298, 298, 277, 276, 275, 270, 267, 261, 256, 271, 280, 289, 418, 405, 396, 381, 382, 367, 348, 338, 327, 318, 313, 296, 297, 280, 270, 266, 288, 287, 326, 307, 419, 417, 398, 395, 391, 392, 363, 358, 339, 319, 304, 303, 298, 280, 271, 284, 289, 305, 313];
Upper_Bound = [0, 1, 8, 15, 32, 133, 109, 94, 74, 75, 81, 90, 93, 213, 212, 194, 183, 193, 185, 12, 23, 9, 14, 34, 40, 48, 52, 73, 80, 82, 83, 92, 103, 159, 156, 163, 155, 167, 178, 37, 36, 37, 20, 21, 24, 28, 39, 72, 73, 74, 75, 79, 105, 129, 143, 152, 153, 159, 160, 42, 41, 40, 44, 53, 74, 31, 46, 55, 58, 60, 75, 91, 99, 105, 269, 159, 160, 182, 193, 65, 58, 55, 45, 55, 61, 55, 47, 273, 270, 265, 283, 257, 253, 243, 259, 242, 188, 189, 207, 67, 84, 92, 404, 420, 300, 296, 281, 269, 268, 259, 255, 252, 251, 238, 223, 222, 206, 190, 199, 410, 406, 401, 400, 385, 314, 292, 282, 285, 275, 277, 271, 265, 255, 254, 235, 250, 258, 268, 279, 411, 415, 402, 379, 376, 369, 385, 357, 298, 298, 277, 276, 275, 270, 267, 261, 256, 271, 280, 289, 418, 405, 396, 381, 382, 367, 348, 338, 327, 318, 313, 296, 297, 280, 270, 266, 288, 287, 326, 307, 419, 417, 398, 395, 391, 392, 363, 358, 339, 319, 304, 303, 298, 280, 271, 284, 289, 305, 313];
Start = 1;
End = 198;
Time = 313;
